presolving:
(round 1, fast)       40950 del vars, 40845 del conss, 0 add conss, 40845 chg bounds, 0 chg sides, 0 chg coeffs, 0 upgd conss, 0 impls, 0 clqs
(round 2, fast)       40950 del vars, 40845 del conss, 0 add conss, 43150 chg bounds, 0 chg sides, 0 chg coeffs, 0 upgd conss, 0 impls, 0 clqs
   (1.4s) running MILP presolver
   (1.6s) MILP presolver (2 rounds): 0 aggregations, 0 fixings, 31 bound changes
   (2.4s) probing cycle finished: starting next cycle
   (2.5s) symmetry computation started: requiring (bin +, int -, cont +), (fixed: bin -, int +, cont -)
   (2.6s) no symmetry present
presolving (3 rounds: 3 fast, 1 medium, 1 exhaustive):
 40952 deleted vars, 40845 deleted constraints, 0 added constraints, 43181 tightened bounds, 0 added holes, 0 changed sides, 0 changed coefficients
 0 implications, 0 cliques
presolved problem has 40948 variables (103 bin, 0 int, 0 impl, 40845 cont) and 8274 constraints
   8274 constraints of type <linear>
Presolving Time: 2.09

 time | node  | left  |LP iter|LP it/n|mem/heur|mdpt |vars |cons |rows |cuts |sepa|confs|strbr|  dualbound   | primalbound  |  gap   | compl. 
p 3.4s|     1 |     0 |  3240 |     - |   locks|   0 |  40k|8274 |8274 |   0 |  0 |   0 |   0 | 7.945510e+04 | 1.010164e+07 |  Large | unknown
i 3.5s|     1 |     0 |  3240 |     - |  oneopt|   0 |  40k|8274 |8274 |   0 |  0 |   0 |   0 | 7.945510e+04 | 9.884675e+06 |  Large | unknown
  4.3s|     1 |     0 |  7332 |     - |   392M |   0 |  40k|8274 |8274 |   0 |  0 |   0 |   0 | 7.995990e+06 | 9.884675e+06 |  23.62%| unknown
r 4.4s|     1 |     0 |  7332 |     - |simplero|   0 |  40k|8274 |8274 |   0 |  0 |   0 |   0 | 7.995990e+06 | 9.835426e+06 |  23.00%| unknown
  5.2s|     1 |     0 |  7784 |     - |   402M |   0 |  40k|8274 |8326 |  52 |  1 |   0 |   0 | 8.285742e+06 | 9.835426e+06 |  18.70%| unknown
  5.8s|     1 |     0 |  8112 |     - |   404M |   0 |  40k|8274 |8379 | 105 |  2 |   0 |   0 | 8.555759e+06 | 9.835426e+06 |  14.96%| unknown
  6.7s|     1 |     0 |  8497 |     - |   405M |   0 |  40k|8274 |8422 | 148 |  3 |   0 |   0 | 8.724940e+06 | 9.835426e+06 |  12.73%| unknown
  7.4s|     1 |     0 |  8742 |     - |   407M |   0 |  40k|8274 |8454 | 180 |  4 |   0 |   0 | 8.815656e+06 | 9.835426e+06 |  11.57%| unknown
  8.6s|     1 |     0 |  9518 |     - |   410M |   0 |  40k|8274 |8506 | 232 |  5 |   0 |   0 | 8.935629e+06 | 9.835426e+06 |  10.07%| unknown
  9.4s|     1 |     0 |  9820 |     - |   413M |   0 |  40k|8274 |8537 | 263 |  6 |   0 |   0 | 8.991415e+06 | 9.835426e+06 |   9.39%| unknown
 10.2s|     1 |     0 | 10218 |     - |   415M |   0 |  40k|8274 |8566 | 292 |  7 |   0 |   0 | 9.023193e+06 | 9.835426e+06 |   9.00%| unknown
 11.0s|     1 |     0 | 10653 |     - |   417M |   0 |  40k|8274 |8599 | 325 |  8 |   0 |   0 | 9.054659e+06 | 9.835426e+06 |   8.62%| unknown
 11.6s|     1 |     0 | 10839 |     - |   419M |   0 |  40k|8274 |8618 | 344 |  9 |   0 |   0 | 9.077765e+06 | 9.835426e+06 |   8.35%| unknown
 12.4s|     1 |     0 | 11118 |     - |   421M |   0 |  40k|8274 |8638 | 364 | 10 |   0 |   0 | 9.100374e+06 | 9.835426e+06 |   8.08%| unknown
 13.1s|     1 |     0 | 11311 |     - |   422M |   0 |  40k|8274 |8656 | 382 | 11 |   0 |   0 | 9.114349e+06 | 9.835426e+06 |   7.91%| unknown
 time | node  | left  |LP iter|LP it/n|mem/heur|mdpt |vars |cons |rows |cuts |sepa|confs|strbr|  dualbound   | primalbound  |  gap   | compl. 
 13.6s|     1 |     0 | 11490 |     - |   424M |   0 |  40k|8274 |8681 | 407 | 12 |   0 |   0 | 9.125714e+06 | 9.835426e+06 |   7.78%| unknown
 14.3s|     1 |     0 | 11769 |     - |   426M |   0 |  40k|8274 |8706 | 432 | 13 |   0 |   0 | 9.135753e+06 | 9.835426e+06 |   7.66%| unknown
 14.9s|     1 |     0 | 12045 |     - |   427M |   0 |  40k|8274 |8723 | 449 | 14 |   0 |   0 | 9.140614e+06 | 9.835426e+06 |   7.60%| unknown
r14.9s|     1 |     0 | 12045 |     - |simplero|   0 |  40k|8274 |8723 | 449 | 14 |   0 |   0 | 9.140614e+06 | 9.573099e+06 |   4.73%| unknown
 15.3s|     1 |     0 | 12175 |     - |   429M |   0 |  40k|8274 |8730 | 456 | 15 |   0 |   0 | 9.143372e+06 | 9.573099e+06 |   4.70%| unknown
 15.7s|     1 |     0 | 12228 |     - |   431M |   0 |  40k|8274 |8728 | 467 | 16 |   0 |   0 | 9.144391e+06 | 9.573099e+06 |   4.69%| unknown
 15.9s|     1 |     0 | 12266 |     - |   433M |   0 |  40k|8274 |8734 | 473 | 17 |   0 |   0 | 9.145171e+06 | 9.573099e+06 |   4.68%| unknown
 16.4s|     1 |     0 | 12455 |     - |   434M |   0 |  40k|8274 |8746 | 485 | 18 |   0 |   0 | 9.148844e+06 | 9.573099e+06 |   4.64%| unknown
 16.9s|     1 |     0 | 12656 |     - |   436M |   0 |  40k|8274 |8769 | 508 | 19 |   0 |   0 | 9.153419e+06 | 9.573099e+06 |   4.58%| unknown
r16.9s|     1 |     0 | 12656 |     - |simplero|   0 |  40k|8274 |8769 | 508 | 19 |   0 |   0 | 9.153419e+06 | 9.535731e+06 |   4.18%| unknown
 17.3s|     1 |     0 | 12862 |     - |   438M |   0 |  40k|8274 |8777 | 516 | 20 |   0 |   0 | 9.155591e+06 | 9.535731e+06 |   4.15%| unknown
 17.7s|     1 |     0 | 13010 |     - |   439M |   0 |  40k|8274 |8785 | 524 | 21 |   0 |   0 | 9.156767e+06 | 9.535731e+06 |   4.14%| unknown
 18.1s|     1 |     0 | 13085 |     - |   440M |   0 |  40k|8274 |8768 | 538 | 22 |   0 |   0 | 9.157870e+06 | 9.535731e+06 |   4.13%| unknown
 18.4s|     1 |     0 | 13127 |     - |   440M |   0 |  40k|8274 |8777 | 547 | 23 |   0 |   0 | 9.158239e+06 | 9.535731e+06 |   4.12%| unknown
 18.7s|     1 |     0 | 13183 |     - |   441M |   0 |  40k|8274 |8787 | 557 | 24 |   0 |   0 | 9.158471e+06 | 9.535731e+06 |   4.12%| unknown
 time | node  | left  |LP iter|LP it/n|mem/heur|mdpt |vars |cons |rows |cuts |sepa|confs|strbr|  dualbound   | primalbound  |  gap   | compl. 
 19.0s|     1 |     0 | 13216 |     - |   442M |   0 |  40k|8274 |8790 | 560 | 25 |   0 |   0 | 9.158505e+06 | 9.535731e+06 |   4.12%| unknown
r19.0s|     1 |     0 | 13216 |     - |simplero|   0 |  40k|8274 |8790 | 560 | 25 |   0 |   0 | 9.158505e+06 | 9.295917e+06 |   1.50%| unknown
 19.1s|     1 |     0 | 13235 |     - |   443M |   0 |  40k|8274 |8793 | 563 | 26 |   0 |   0 | 9.158518e+06 | 9.295917e+06 |   1.50%| unknown
r19.1s|     1 |     0 | 13235 |     - |simplero|   0 |  40k|8274 |8793 | 563 | 26 |   0 |   0 | 9.158518e+06 | 9.288232e+06 |   1.42%| unknown
 19.3s|     1 |     0 | 13263 |     - |   444M |   0 |  40k|8274 |8797 | 567 | 27 |   0 |   0 | 9.158544e+06 | 9.288232e+06 |   1.42%| unknown
 19.5s|     1 |     0 | 13275 |     - |   445M |   0 |  40k|8274 |8768 | 568 | 28 |   0 |   0 | 9.158545e+06 | 9.288232e+06 |   1.42%| unknown
r19.5s|     1 |     0 | 13275 |     - |simplero|   0 |  40k|8274 |8768 | 568 | 28 |   0 |   0 | 9.158545e+06 | 9.287087e+06 |   1.40%| unknown
 19.6s|     1 |     0 | 13276 |     - |   446M |   0 |  40k|8274 |8769 | 569 | 29 |   0 |   0 | 9.158545e+06 | 9.287087e+06 |   1.40%| unknown
 19.8s|     1 |     0 | 13277 |     - |   446M |   0 |  40k|8274 |8770 | 570 | 30 |   0 |   0 | 9.158545e+06 | 9.287087e+06 |   1.40%| unknown
r20.4s|     1 |     0 | 13714 |     - |intshift|   0 |  40k|8274 |8770 | 570 | 32 |   0 |   0 | 9.158545e+06 | 9.187038e+06 |   0.31%| unknown
L25.3s|     1 |     0 | 15363 |     - |    rens|   0 |  40k|8274 |8770 | 570 | 32 |  76 |   0 | 9.158545e+06 | 9.171722e+06 |   0.14%| unknown
 26.0s|     1 |     0 | 15363 |     - |   467M |   0 |  40k|8274 |8770 | 570 | 32 |  76 |   0 | 9.158545e+06 | 9.171722e+06 |   0.14%| unknown
 26.0s|     1 |     0 | 15363 |     - |   467M |   0 |  40k|8274 |8770 | 570 | 32 |  76 |   0 | 9.158545e+06 | 9.171722e+06 |   0.14%| unknown
 26.2s|     1 |     0 | 15363 |     - |   467M |   0 |  40k|8273 |8770 | 570 | 34 |  76 |   0 | 9.158545e+06 | 9.171722e+06 |   0.14%| unknown
 26.3s|     1 |     0 | 15370 |     - |   467M |   0 |  40k|8273 |8771 | 571 | 35 |  76 |   0 | 9.158562e+06 | 9.171722e+06 |   0.14%| unknown
 time | node  | left  |LP iter|LP it/n|mem/heur|mdpt |vars |cons |rows |cuts |sepa|confs|strbr|  dualbound   | primalbound  |  gap   | compl. 
 27.4s|     1 |     0 | 15797 |     - |   472M |   0 |  40k|8273 |8771 | 571 | 36 |  34k|   1 | 9.166063e+06 | 9.171722e+06 |   0.06%| unknown
(run 1, node 1) restarting after 11 global fixings of integer variables

(restart) converted 496 cuts from the global cut pool into linear constraints

presolving:
(round 1, fast)       789 del vars, 3 del conss, 0 add conss, 7096 chg bounds, 0 chg sides, 1 chg coeffs, 0 upgd conss, 0 impls, 0 clqs
(round 2, fast)       789 del vars, 3 del conss, 0 add conss, 7811 chg bounds, 0 chg sides, 1 chg coeffs, 0 upgd conss, 0 impls, 0 clqs
(round 3, exhaustive) 789 del vars, 4 del conss, 0 add conss, 7835 chg bounds, 0 chg sides, 1 chg coeffs, 7 upgd conss, 0 impls, 0 clqs
presolving (4 rounds: 4 fast, 2 medium, 2 exhaustive):
 789 deleted vars, 4 deleted constraints, 0 added constraints, 7835 tightened bounds, 0 added holes, 0 changed sides, 1 changed coefficients
 7 implications, 0 cliques
presolved problem has 40159 variables (92 bin, 0 int, 0 impl, 40067 cont) and 8765 constraints
      7 constraints of type <varbound>
   8758 constraints of type <linear>
Presolving Time: 3.32
transformed 14/52 original solutions to the transformed problem space

 time | node  | left  |LP iter|LP it/n|mem/heur|mdpt |vars |cons |rows |cuts |sepa|confs|strbr|  dualbound   | primalbound  |  gap   | compl. 
 34.5s|     1 |     0 | 25761 |     - |   543M |   0 |  40k|8765 |8765 |   0 |  0 |  34k|   1 | 9.166063e+06 | 9.171722e+06 |   0.06%| unknown
 34.7s|     1 |     0 | 25761 |     - |   544M |   0 |  40k|8765 |8765 |   0 |  0 |  34k|   1 | 9.166063e+06 | 9.171722e+06 |   0.06%| unknown
 35.1s|     1 |     0 | 25949 |     - |   545M |   0 |  40k|8765 |8801 |  36 |  1 |  34k|   1 | 9.167209e+06 | 9.171722e+06 |   0.05%| unknown
 35.3s|     1 |     0 | 25949 |     - |   545M |   0 |  40k|8765 |8801 |  36 |  1 |  34k|   1 | 9.167209e+06 | 9.171722e+06 |   0.05%| unknown
 35.5s|     1 |     0 | 26042 |     - |   546M |   0 |  40k|8765 |8818 |  53 |  2 |  34k|   1 | 9.167402e+06 | 9.171722e+06 |   0.05%| unknown
 35.8s|     1 |     0 | 26068 |     - |   548M |   0 |  40k|8765 |8826 |  61 |  3 |  34k|   1 | 9.167434e+06 | 9.171722e+06 |   0.05%| unknown
 36.0s|     1 |     0 | 26096 |     - |   549M |   0 |  40k|8765 |8830 |  65 |  4 |  34k|   1 | 9.167495e+06 | 9.171722e+06 |   0.05%| unknown
 36.3s|     1 |     0 | 26119 |     - |   551M |   0 |  40k|8765 |8841 |  76 |  5 |  34k|   1 | 9.167563e+06 | 9.171722e+06 |   0.05%| unknown
 36.5s|     1 |     0 | 26126 |     - |   552M |   0 |  40k|8765 |8842 |  77 |  6 |  34k|   1 | 9.167563e+06 | 9.171722e+06 |   0.05%| unknown
 36.7s|     1 |     0 | 26128 |     - |   553M |   0 |  40k|8765 |8844 |  79 |  7 |  34k|   1 | 9.167563e+06 | 9.171722e+06 |   0.05%| unknown
 36.8s|     1 |     0 | 26129 |     - |   554M |   0 |  40k|8765 |8846 |  81 |  8 |  34k|   1 | 9.167563e+06 | 9.171722e+06 |   0.05%| unknown
 37.0s|     1 |     0 | 26131 |     - |   556M |   0 |  40k|8765 |8848 |  83 |  9 |  34k|   1 | 9.167563e+06 | 9.171722e+06 |   0.05%| unknown
 37.2s|     1 |     0 | 26132 |     - |   557M |   0 |  40k|8765 |8850 |  85 | 10 |  34k|   1 | 9.167563e+06 | 9.171722e+06 |   0.05%| unknown
 37.4s|     1 |     0 | 26132 |     - |   558M |   0 |  40k|8758 |8850 |  85 | 12 |  34k|   1 | 9.167563e+06 | 9.171722e+06 |   0.05%| unknown
d39.4s|     1 |     0 | 27334 |     - |farkasdi|   0 |  40k|8759 |8850 |   0 | 14 |  34k|   1 | 9.167563e+06 | 9.171722e+06 |   0.05%| unknown
 time | node  | left  |LP iter|LP it/n|mem/heur|mdpt |vars |cons |rows |cuts |sepa|confs|strbr|  dualbound   | primalbound  |  gap   | compl. 
 43.2s|     1 |     0 | 27358 |     - |   571M |   0 |  40k|8759 |8850 |  85 | 14 |  55k|   1 | 9.167563e+06 | 9.171722e+06 |   0.05%| unknown
 43.4s|     1 |     0 | 27473 |     - |   572M |   0 |  40k|8759 |8851 |  86 | 15 |  55k|   1 | 9.169012e+06 | 9.171722e+06 |   0.03%| unknown
 43.5s|     1 |     0 | 27473 |     - |   573M |   0 |  40k|8759 |8850 |  86 | 15 |  55k|   1 | 9.169012e+06 | 9.171722e+06 |   0.03%| unknown
 43.7s|     1 |     0 | 27473 |     - |   573M |   0 |  40k|8757 |8850 |  86 | 16 |  55k|   1 | 9.169012e+06 | 9.171722e+06 |   0.03%| unknown
 43.8s|     1 |     0 | 27479 |     - |   573M |   0 |  40k|8757 |8854 |  90 | 17 |  55k|   1 | 9.169098e+06 | 9.171722e+06 |   0.03%| unknown
 45.1s|     1 |     0 | 27877 |     - |   580M |   0 |  40k|8713 |8854 |  90 | 18 |  88k|   3 | 9.170337e+06 | 9.171722e+06 |   0.02%| unknown
 45.2s|     1 |     0 | 27877 |     - |   581M |   0 |  40k|8713 |8827 |  90 | 18 |  88k|   3 | 9.170337e+06 | 9.171722e+06 |   0.02%| unknown
 45.4s|     1 |     0 | 27899 |     - |   582M |   0 |  40k|8713 |8738 | 100 | 19 |  88k|   3 | 9.170364e+06 | 9.171722e+06 |   0.01%| unknown
 45.5s|     1 |     0 | 27900 |     - |   584M |   0 |  40k|8713 |8739 | 101 | 20 |  88k|   3 | 9.170364e+06 | 9.171722e+06 |   0.01%| unknown
 45.6s|     1 |     0 | 27900 |     - |   584M |   0 |  40k|8701 |8739 | 101 | 20 |  88k|   3 | 9.170364e+06 | 9.171722e+06 |   0.01%| unknown
 45.7s|     1 |     0 | 27910 |     - |   585M |   0 |  40k|8701 |8741 | 103 | 21 |  88k|   3 | 9.170376e+06 | 9.171722e+06 |   0.01%| unknown
 46.5s|     1 |     0 | 28090 |     - |   586M |   0 |  40k|8697 |8741 | 103 | 22 | 109k|   4 | 9.171280e+06 | 9.171722e+06 |   0.00%| unknown
 46.6s|     1 |     0 | 28090 |     - |   586M |   0 |  40k|8697 |8728 | 103 | 22 | 109k|   4 | 9.171280e+06 | 9.171722e+06 |   0.00%| unknown
 46.7s|     1 |     0 | 28103 |     - |   586M |   0 |  40k|8697 |8735 | 110 | 23 | 109k|   4 | 9.171282e+06 | 9.171722e+06 |   0.00%| unknown
 46.9s|     1 |     0 | 28110 |     - |   586M |   0 |  40k|8697 |8739 | 114 | 24 | 109k|   4 | 9.171285e+06 | 9.171722e+06 |   0.00%| unknown
 time | node  | left  |LP iter|LP it/n|mem/heur|mdpt |vars |cons |rows |cuts |sepa|confs|strbr|  dualbound   | primalbound  |  gap   | compl. 
 47.6s|     1 |     0 | 28147 |     - |   586M |   0 |  40k|8559 |8739 | 114 | 24 | 200k|   8 | 9.171454e+06 | 9.171722e+06 |   0.00%| unknown
 47.8s|     1 |     0 | 28183 |     - |   586M |   0 |  40k|8559 |8742 | 117 | 25 | 200k|   8 | 9.171490e+06 | 9.171722e+06 |   0.00%| unknown
 48.2s|     1 |     0 | 28198 |     - |   586M |   0 |  40k|8550 |8742 | 117 | 26 | 229k|   9 | 9.171549e+06 | 9.171722e+06 |   0.00%| unknown
 48.4s|     1 |     0 | 28241 |     - |   587M |   0 |  40k|8550 |8743 | 118 | 27 | 229k|   9 | 9.171695e+06 | 9.171722e+06 |   0.00%| unknown
 48.7s|     1 |     0 | 28251 |     - |   587M |   0 |  40k|8531 |8743 | 118 | 28 | 230k|  10 | 9.171700e+06 | 9.171722e+06 |   0.00%| unknown
 49.0s|     1 |     0 | 28280 |     - |   588M |   0 |  40k|8532 |8743 | 118 | 30 | 260k|  12 | 9.171722e+06 | 9.171722e+06 |   0.00%| unknown

SCIP Status        : problem is solved [optimal solution found]
Solving Time (sec) : 48.98
Solving Nodes      : 1 (total of 2 nodes in 2 runs)
Primal Bound       : +9.17172187202056e+06 (112 solutions)
Dual Bound         : +9.17172187202056e+06
Gap                : 0.00 %
Solve Status: optimal
Solve Time: 49.03 seconds
